letting n_nurses=25
letting n_days=7
letting n_shift_types=4
letting max_covers=14
letting t_covers=61
letting covers=[3,14,0,0,12,2,0,0,1,10,1,0,3,14,0,0,1,0,0,0,0,0,0,0,0,0,0,0]
letting prefes=[1,1,1,2,2,2,4,1,4,4,4,2,2,2,4,1,1,1,1,2,4,4,4,2,1,1,1,2,4,1,1,2,1,2,1,1,4,1,1,2,1,2,1,1,4,1,1,2,4,1,1,2,4,1,1,2,4,4,4,2,2,2,4,4,1,1,1,2,2,2,4,4,4,4,4,2,1,1,1,2,4,4,4,2,4,1,4,2,1,2,4,1,4,1,4,2,1,2,4,1,4,1,4,2,4,1,4,2,4,1,4,2,4,1,4,1,1,2,4,1,4,1,4,1,1,2,4,1,4,1,4,1,4,1,4,1,4,1,4,1,1,1,4,1,1,2,4,1,1,1,1,1,1,2,4,1,1,1,4,1,1,1,1,1,1,1,4,1,4,1,4,1,1,2,1,1,4,1,4,1,1,2,1,1,4,1,4,1,4,1,4,1,4,1,4,1,1,1,4,2,1,1,1,1,4,1,4,2,1,1,1,1,1,1,4,2,4,1,4,2,1,1,4,2,4,1,4,2,1,2,4,1,4,1,4,2,1,2,4,1,4,1,4,2,4,1,4,2,4,1,4,2,4,1,4,2,1,1,4,1,4,1,4,2,1,1,4,1,4,1,4,2,4,1,4,2,4,1,4,2,4,1,4,2,1,2,4,1,4,1,4,2,1,2,4,1,4,1,4,2,4,1,4,2,4,1,4,2,4,1,4,1,1,2,4,1,4,1,4,1,1,2,4,1,4,1,4,1,4,1,4,1,4,1,4,1,4,1,4,2,2,2,1,1,1,1,1,2,2,2,1,1,4,1,4,2,1,1,1,2,4,1,4,2,4,4,4,2,1,1,4,4,4,1,4,2,1,1,4,4,4,4,4,2,4,1,4,2,4,4,4,2,4,4,4,2,1,1,4,4,4,1,4,2,1,1,4,4,4,4,4,2,4,1,4,2,4,4,4,2,1,1,4,2,2,2,4,1,1,1,4,2,2,2,4,1,1,1,4,2,1,1,4,2,1,1,4,2,4,4,4,2,2,2,4,4,4,1,4,2,2,2,4,4,4,4,4,2,4,1,4,2,4,4,4,2,4,1,1,2,1,2,4,1,4,4,4,2,1,2,4,1,4,1,1,2,4,4,4,2,4,1,1,2,1,1,1,1,1,2,4,1,4,1,4,1,1,2,4,1,1,1,1,1,4,1,4,1,1,1,1,1,4,1,4,2,1,2,1,1,4,4,4,2,1,2,1,1,4,1,4,2,4,4,4,2,4,1,4,2,4,1,1,2,1,2,4,1,4,4,1,2,1,2,4,1,4,1,1,2,4,4,1,2,4,1,1,2,4,1,4,2,1,2,4,1,4,1,4,2,1,2,4,1,4,1,4,2,4,1,4,2,4,1,4,2,4,4,4,2,1,2,4,4,4,1,4,2,1,2,4,4,4,4,4,2,4,1,4,2,4,4,4,2,4,1,4,2,1,1,4,1,4,4,4,2,1,1,4,1,4,1,4,2,4,4,4,2,4,1,4,2,4,1,4,2,1,2,4,1,1,1,4,2,1,2,4,1,4,1,4,2,1,1,4,2,4,1,4,2]
letting ub =  223
